NAME : local_5
TYPE : ATSP
DIMENSION : 8
EDGE_WEIGHT_TYPE : EXPLICIT
EDGE_WEIGHT_FORMAT : FULL_MATRIX
EDGE_WEIGHT_SECTION
0 10000000 290 1065 186 10000000 848 420 
0 0 10000000 988 10000000 145 965 938 
0 10000000 0 900 443 943 673 155 
0 988 900 0 10000000 917 253 896 
0 10000000 443 10000000 0 10000000 1020 546 
0 145 943 917 10000000 0 863 805 
0 965 673 253 1013 863 0 677 
0 10000000 10000000 10000000 10000000 10000000 10000000 0 
EOF